n_machines = 2;
n_resources = 4;
n_jobs = 55;
horizon = 2759;
LB = 1379;
n_jobs_per_resource = [7, 16, 16, 16];
duration = [16, 95, 15, 4, 78, 2, 45, 95, 38, 1, 66, 75, 13, 95, 4, 43, 91, 95, 84, 84, 62, 90, 76, 65, 48, 8, 76, 9, 94, 66, 23, 18, 71, 78, 77, 38, 25, 34, 55, 9, 18, 20, 79, 65, 78, 59, 31, 42, 73, 68, 41, 14, 77, 28, 5]